Gurobi Optimizer version 9.1.2 build v9.1.2rc0 (linux64)
Thread count: 36 physical cores, 72 logical processors, using up to 32 threads
Optimize a model with 12 rows, 57 columns and 590 nonzeros
Model fingerprint: 0xf32eec78
Model has 47 quadratic constraints
Coefficient statistics:
  Matrix range     [2e-05, 3e+00]
  QMatrix range    [1e+00, 1e+00]
  QLMatrix range   [1e+00, 1e+00]
  Objective range  [8e-03, 7e-01]
  Bounds range     [1e+00, 1e+00]
  RHS range        [1e+00, 1e+00]
Presolve removed 9 rows and 0 columns

Continuous model is non-convex -- solving as a MIP.

Presolve removed 9 rows and 0 columns
Presolve time: 0.00s
Presolved: 189 rows, 57 columns, 443 nonzeros
Presolved model has 47 bilinear constraint(s)
Variable types: 57 continuous, 0 integer (0 binary)

Root relaxation: objective -1.743721e+00, 44 iterations, 0.00 seconds

    Nodes    |    Current Node    |     Objective Bounds      |     Work
 Expl Unexpl |  Obj  Depth IntInf | Incumbent    BestBd   Gap | It/Node Time

     0     0   -1.74372    0   38          -   -1.74372      -     -    0s
H    0     0                       0.6147548   -1.74372   384%     -    0s
     0     0   -1.64739    0    1    0.61475   -1.64739   368%     -    0s
H    0     0                      -1.6450460   -1.64739  0.14%     -    0s
     0     0     cutoff    0        -1.64505   -1.64505  0.00%     -    0s

Cutting planes:
  RLT: 25
  BQP: 3

Explored 1 nodes (76 simplex iterations) in 0.01 seconds
Thread count was 32 (of 72 available processors)

Solution count 2: -1.64505 0.614755 
No other solutions better than -1.64505

Optimal solution found (tolerance 1.00e-04)
Best objective -1.645045978473e+00, best bound -1.645045978473e+00, gap 0.0000%

User-callback calls 78, time in user-callback 0.00 sec
Gurobi Optimizer version 9.1.2 build v9.1.2rc0 (linux64)
Thread count: 36 physical cores, 72 logical processors, using up to 32 threads
Optimize a model with 60 rows, 300 columns and 15500 nonzeros
Model fingerprint: 0xfb9902ea
Model has 250 quadratic constraints
Coefficient statistics:
  Matrix range     [1e-06, 4e+00]
  QMatrix range    [1e+00, 1e+00]
  QLMatrix range   [1e+00, 1e+00]
  Objective range  [3e-04, 9e-01]
  Bounds range     [1e+00, 1e+00]
  RHS range        [1e+00, 1e+00]
Presolve removed 10 rows and 0 columns

Continuous model is non-convex -- solving as a MIP.

Presolve removed 10 rows and 0 columns
Presolve time: 0.01s
Presolved: 1050 rows, 300 columns, 14461 nonzeros
Presolved model has 250 bilinear constraint(s)
Variable types: 300 continuous, 0 integer (0 binary)

Root relaxation: objective -1.843675e+01, 331 iterations, 0.02 seconds

    Nodes    |    Current Node    |     Objective Bounds      |     Work
 Expl Unexpl |  Obj  Depth IntInf | Incumbent    BestBd   Gap | It/Node Time

     0     0  -18.43675    0  208          -  -18.43675      -     -    0s
H    0     0                      -3.9884031  -18.43675   362%     -    0s
     0     0  -16.59353    0  186   -3.98840  -16.59353   316%     -    0s
     0     0  -16.37896    0  183   -3.98840  -16.37896   311%     -    0s
H    0     0                      -8.7417297  -16.37896  87.4%     -    0s
     0     0  -16.36631    0  162   -8.74173  -16.36631  87.2%     -    0s
     0     0  -16.32225    0  133   -8.74173  -16.32225  86.7%     -    0s
H    0     0                      -9.8249864  -16.32225  66.1%     -    0s
H    0     0                     -13.8241450  -16.32225  18.1%     -    0s
H    0     0                     -14.1282611  -16.32225  15.5%     -    0s
H    0     0                     -14.1496312  -16.32225  15.4%     -    0s
     0     2  -16.32225    0  133  -14.14963  -16.32225  15.4%     -    0s
* 1249   914              64     -14.1503582  -15.58068  10.1%  70.8    1s
* 1304   969              69     -14.1685301  -15.58068  10.0%  70.4    1s
* 1305   969              69     -14.1685304  -15.58068  10.0%  70.3    1s
* 2409  1859              65     -14.4979403  -15.58068  7.47%  59.2    2s
* 2411  1859              66     -14.4979404  -15.58068  7.47%  59.2    2s
* 2413  1859              67     -14.4979404  -15.58068  7.47%  59.1    2s
* 2414  1859              67     -14.4979406  -15.58068  7.47%  59.1    2s
* 4871  1295              69     -14.4984877  -15.58068  7.46%  60.2    4s
* 4996  1240              73     -14.4985028  -15.58068  7.46%  60.0    4s
* 4997  1184              73     -14.4985029  -15.58068  7.46%  59.9    4s
* 5321  1285              82     -14.6361910  -15.58068  6.45%  59.2    4s
* 5322  1234              82     -14.6362010  -15.58068  6.45%  59.2    4s
* 5423  1153              67     -14.6469464  -15.58068  6.37%  58.9    4s
* 5505  1096              68     -14.6490226  -15.58068  6.36%  58.5    4s
* 6248  1223              64     -14.6490953  -15.58068  6.36%  57.9    4s
* 6251  1223              66     -14.6490963  -15.58068  6.36%  57.9    4s
* 6375  1279              84     -14.8498572  -15.58068  4.92%  57.9    4s
* 6389  1279              97     -14.8498966  -15.58068  4.92%  57.8    4s
* 6390  1279              97     -14.8498971  -15.58068  4.92%  57.8    4s
* 6391  1279              96     -14.8498977  -15.58068  4.92%  57.8    4s
  6509  1276     cutoff   25       -14.84990  -15.58068  4.92%  57.6    5s
* 6555  1276              95     -14.8498983  -15.58068  4.92%  57.6    5s
* 6556  1276              94     -14.8498990  -15.58068  4.92%  57.6    5s
* 7168  1461              70     -14.9832402  -15.58068  3.99%  57.0    5s
* 7759  1547              65     -14.9832508  -15.58068  3.99%  56.1    5s
* 7806  1547              64     -14.9863146  -15.58068  3.97%  56.1    5s
* 8365  1601              70     -14.9863317  -15.23553  1.66%  54.7    5s
* 8519  1601              63     -14.9865624  -15.23553  1.66%  54.4    5s
* 8520  1601              62     -14.9865946  -15.23553  1.66%  54.4    5s
* 8705  1647              69     -14.9866868  -15.23553  1.66%  54.2    5s
* 9059  1711              66     -14.9866974  -15.14778  1.07%  53.7    5s
* 9061  1711              67     -14.9867008  -15.14778  1.07%  53.7    5s
* 9064  1711              66     -14.9868158  -15.14778  1.07%  53.7    5s
* 9158  1711              68     -14.9868201  -15.14778  1.07%  53.5    5s
* 9159  1711              67     -14.9868995  -15.14778  1.07%  53.5    5s
* 9160  1711              66     -14.9869067  -15.14778  1.07%  53.5    5s
* 9390  1788              73     -14.9870337  -15.14778  1.07%  53.1    6s
* 9391  1788              73     -14.9870338  -15.14778  1.07%  53.1    6s
* 9501  1788              57     -14.9870479  -15.14778  1.07%  52.9    6s
* 9504  1788              58     -14.9870496  -15.14778  1.07%  52.9    6s
* 9505  1788              58     -14.9870518  -15.14778  1.07%  52.9    6s
* 9508  1788              58     -14.9870518  -15.14778  1.07%  52.8    6s
* 9652  1821              72     -14.9871970  -15.14778  1.07%  52.7    6s
* 9655  1821              72     -14.9872294  -15.14778  1.07%  52.7    6s
*10243  1853              84     -14.9883054  -15.14778  1.06%  51.6    6s
*10791  1911              56     -14.9885436  -15.14778  1.06%  50.4    6s
*10865  1911              58     -14.9909871  -15.14778  1.05%  50.2    6s
*10868  1911              59     -14.9909879  -15.14778  1.05%  50.2    6s
*10880  1934              70     -14.9922154  -15.09775  0.70%  50.1    6s
*11384  1934              68     -15.0028762  -15.07427  0.48%  49.0    6s
*11718  1868              89     -15.0075280  -15.07427  0.44%  48.1    6s
*12058  1837              71     -15.0100131  -15.06109  0.34%  47.6    6s
*12059  1837              71     -15.0100131  -15.06109  0.34%  47.6    6s
*12091  1837              70     -15.0100449  -15.06109  0.34%  47.6    6s
*12770  1956              76     -15.0136138  -15.03556  0.15%  46.2    6s
*12771  1956              77     -15.0136152  -15.03556  0.15%  46.1    6s
*13476  2029              73     -15.0136241  -15.03556  0.15%  44.5    7s
*13477  2029              73     -15.0136242  -15.03556  0.15%  44.5    7s
*13525  2029              61     -15.0147438  -15.03556  0.14%  44.4    7s
*13581  2029              68     -15.0150365  -15.03556  0.14%  44.3    7s
*14306  2019              74     -15.0156189  -15.02621  0.07%  42.6    7s
*14309  2019              75     -15.0156190  -15.02621  0.07%  42.5    7s
*14310  2019              76     -15.0156190  -15.02621  0.07%  42.5    7s
*14312  2019              77     -15.0156192  -15.02621  0.07%  42.5    7s
*14350  2019              68     -15.0159653  -15.02621  0.07%  42.4    7s
*14668  2019              73     -15.0162932  -15.02621  0.07%  41.7    7s
*15140  1941              64     -15.0165344  -15.02571  0.06%  40.7    7s
*15401  1941              69     -15.0166907  -15.02571  0.06%  40.1    7s
*15402  1941              69     -15.0166911  -15.02571  0.06%  40.1    7s
*16610  1831              68     -15.0167023  -15.02531  0.06%  37.7    7s
*16612  1831              69     -15.0167073  -15.02531  0.06%  37.7    7s
*16688  1831              68     -15.0169869  -15.02531  0.06%  37.6    7s
*16935  1831              71     -15.0170898  -15.02531  0.05%  37.1    7s
*16936  1831              71     -15.0170978  -15.02531  0.05%  37.1    7s
*20306   948              71     -15.0170987  -15.01880  0.01%  31.8    8s
*20307   948              71     -15.0170991  -15.01880  0.01%  31.8    8s
*21263   569              71     -15.0170992  -15.01734  0.00%  30.5    8s
*21264   569              71     -15.0170994  -15.01734  0.00%  30.5    8s

Explored 21664 nodes (650587 simplex iterations) in 8.22 seconds
Thread count was 32 (of 72 available processors)

Solution count 10: -15.0171 -15.0171 -15.0171 ... -15.0167

Optimal solution found (tolerance 1.00e-04)
Best objective -1.501709937265e+01, best bound -1.501733727392e+01, gap 0.0016%

User-callback calls 44363, time in user-callback 0.01 sec



objective value: -15.017099372645845
objective bound: -15.017337273916167
x_opt: [0.0, 1.0, 1.0, 0.0, 0.0, 0.0, 1.0, 1.0, 0.0, 0.0, 0.26050804125675736, 0.4017448462098143, 0.0, 1.0, 1.0, 1.0, 0.0, 1.0, 0.0, 0.0, 0.0, 1.0, 1.0, 1.0, 0.0, 1.0, 1.0, 1.0, 0.0, 0.8407832742168297, 1.0, 0.7398875211406358, 0.0, 0.20158010400040646, 1.0, 1.0, 1.0, 1.0, 0.47873145886742, 1.0, 0.8862607673412216, 0.13568929022577778, 1.0, 0.0, 0.0, 0.7188473316025518, 0.14207829523259763, 0.01567624442237918, 0.0, 1.0]
GUROBI solution time: 8.21931004524231

